New structure
1.0
        7.3299999237         0.0000000000         0.0000000000
        0.0000000000         7.3299999237         0.0000000000
        0.0000000000         0.0000000000         7.3299999237
    B    C
   16   48
Direct
     0.897109985         0.897109985         0.102890000
     0.102890015         0.102890015         0.102890000
     0.102890015         0.897109985         0.897109985
     0.897109985         0.102890015         0.897109985
     0.397109985         0.397109985         0.602890015
     0.602890015         0.602890015         0.602890015
     0.602890015         0.397109985         0.397109985
     0.397109985         0.602890015         0.397109985
     0.242730007         0.242730007         0.757269979
     0.757269979         0.757269979         0.757269979
     0.757269979         0.242730007         0.242730021
     0.242730007         0.757269979         0.242730021
     0.742730021         0.742730021         0.257269979
     0.257269979         0.257269979         0.257269979
     0.257269979         0.742730021         0.742730021
     0.742730021         0.257269979         0.742730021
     0.267549992         0.000000000         0.000000000
     0.732450008         0.000000000         0.000000000
     0.000000000         0.267549992         0.000000000
     0.000000000         0.732450008         0.000000000
     0.000000000         0.000000000         0.267549992
     0.000000000         0.000000000         0.732450008
     0.767549992         0.500000000         0.500000000
     0.232450008         0.500000000         0.500000000
     0.500000000         0.767549992         0.500000000
     0.500000000         0.232450008         0.500000000
     0.500000000         0.500000000         0.767549992
     0.500000000         0.500000000         0.232450008
     0.000000000         0.500000000         0.750000000
     0.000000000         0.500000000         0.250000000
     0.750000000         0.000000000         0.500000000
     0.250000000         0.000000000         0.500000000
     0.500000000         0.750000000         0.000000000
     0.500000000         0.250000000         0.000000000
     0.500000000         0.000000000         0.750000000
     0.500000000         0.000000000         0.250000000
     0.000000000         0.750000000         0.500000000
     0.000000000         0.250000000         0.500000000
     0.750000000         0.500000000         0.000000000
     0.250000000         0.500000000         0.000000000
     0.617919981         0.875800014         0.875800014
     0.382080019         0.124199986         0.875800014
     0.382080019         0.875800014         0.124199986
     0.617919981         0.124199986         0.124199986
     0.875800014         0.617919981         0.875800014
     0.875800014         0.382080019         0.124199986
     0.124199986         0.382080019         0.875800014
     0.124199986         0.617919981         0.124199986
     0.875800014         0.875800014         0.617919981
     0.124199986         0.875800014         0.382080019
     0.875800014         0.124199986         0.382080019
     0.124199986         0.124199986         0.617919981
     0.117919981         0.375800014         0.375800014
     0.882080019         0.624199986         0.375800014
     0.882080019         0.375800014         0.624199986
     0.117919981         0.624199986         0.624199986
     0.375800014         0.117919981         0.375800014
     0.375800014         0.882080019         0.624199986
     0.624199986         0.882080019         0.375800014
     0.624199986         0.117919981         0.624199986
     0.375800014         0.375800014         0.117919981
     0.624199986         0.375800014         0.882080019
     0.375800014         0.624199986         0.882080019
     0.624199986         0.624199986         0.117919981
